proyfinal/src/viki/013/andrea/andrea-localstore/experimentInOfficeAgust.take6/worker_10/82bb19f6-8e38-493e-9402-c6ba0e2495fd.als.cnf.out
Reading from standard input... Use '--help' for help.
============================[ Problem Statistics ]=============================
|                                                                             |
|  Number of variables:         87638                                         |
|  Number of clauses:          161767                                         |
|  Parse time:                   0.03 s                                       |
|                                                                             |
============================[ Search Statistics ]==============================
| Conflicts |          ORIGINAL         |          LEARNT          | Progress |
|           |    Vars  Clauses Literals |    Limit  Clauses Lit/Cl |          |
===============================================================================
|       100 |   62124   104504   260618 |    38318       99     35 | 29.113 % |
|       250 |   62052   104356   260276 |    42149      245     43 | 29.195 % |
|       475 |   62052   104138   259765 |    46364      468     49 | 29.195 % |
|       812 |   62052   104138   259765 |    51001      805     58 | 29.195 % |
|      1318 |   62032   104054   259572 |    56101     1301     57 | 29.218 % |
|      2077 |   53158   104010   259482 |    61711     2055     60 | 39.344 % |
|      3216 |   53140    77411   194225 |    67882     3131     71 | 39.364 % |
|      4924 |   53062    77103   193472 |    74671     4832     69 | 39.453 % |
|      7486 |   53022    76921   193047 |    82138     7384     62 | 39.499 % |
|     11330 |   52838    76481   191991 |    90352    10995     56 | 39.709 % |
|     17096 |   52742    75726   190229 |    99387    15180     57 | 39.818 % |
===============================================================================
restarts              : 66
conflicts             : 19658          (8423 /sec)
decisions             : 57098          (0.00 % random) (24466 /sec)
propagations          : 23737139       (10171278 /sec)
conflict literals     : 1068965        (50.09 % deleted)
Memory used           : 37.06 MB
CPU time              : 2.33374 s

UNSATISFIABLE
